Set parameter TokenServer to value "opt-license.discovery.wisc.edu"
Gurobi Optimizer version 9.5.1 build v9.5.1rc2 (linux64)
Thread count: 40 physical cores, 80 logical processors, using up to 32 threads
Optimize a model with 3025 rows, 2916 columns and 11610 nonzeros
Model fingerprint: 0x29bc37e3
Coefficient statistics:
  Matrix range     [1e+00, 1e+03]
  Objective range  [1e+00, 9e+00]
  Bounds range     [1e+00, 1e+00]
  RHS range        [1e+00, 6e+00]
Presolve removed 54 rows and 0 columns
Presolve time: 0.01s
Presolved: 2971 rows, 2916 columns, 11610 nonzeros

Iteration    Objective       Primal Inf.    Dual Inf.      Time
       0    0.0000000e+00   2.948000e+03   0.000000e+00      0s
     914    5.9591399e+01   0.000000e+00   0.000000e+00      0s

Solved in 914 iterations and 0.07 seconds (0.05 work units)
Optimal objective  5.959139899e+01
Set parameter LazyConstraints to value 1
Set parameter TimeLimit to value 1800
Gurobi Optimizer version 9.5.1 build v9.5.1rc2 (linux64)
Thread count: 40 physical cores, 80 logical processors, using up to 32 threads
Optimize a model with 3025 rows, 2916 columns and 11610 nonzeros
Model fingerprint: 0x8ee5f908
Variable types: 0 continuous, 2916 integer (2916 binary)
Coefficient statistics:
  Matrix range     [1e+00, 1e+03]
  Objective range  [1e+00, 9e+00]
  Bounds range     [1e+00, 1e+00]
  RHS range        [1e+00, 6e+00]
Presolve removed 54 rows and 0 columns
Presolve time: 0.05s
Presolved: 2971 rows, 2916 columns, 11610 nonzeros
Variable types: 0 continuous, 2916 integer (2916 binary)

Root relaxation: objective 5.960265e+01, 984 iterations, 0.06 seconds (0.04 work units)

    Nodes    |    Current Node    |     Objective Bounds      |     Work
 Expl Unexpl |  Obj  Depth IntInf | Incumbent    BestBd   Gap | It/Node Time

     0     0   59.60265    0   53          -   59.60265      -     -    0s
     0     0   60.41605    0   31          -   60.41605      -     -    1s
     0     0   60.50271    0   49          -   60.50271      -     -    1s
     0     0   60.50271    0   49          -   60.50271      -     -    1s
     0     0   60.50296    0   48          -   60.50296      -     -    1s
     0     0   60.57452    0   51          -   60.57452      -     -    1s
     0     0   60.58004    0   60          -   60.58004      -     -    1s
     0     0   60.59736    0   75          -   60.59736      -     -    1s
     0     0   60.60510    0  106          -   60.60510      -     -    1s
     0     0   60.61334    0  107          -   60.61334      -     -    1s
     0     0   60.61334    0  107          -   60.61334      -     -    1s
H    0     0                      61.4066887   60.61334  1.29%     -    2s
H    0     0                      61.2285432   60.61334  1.00%     -    2s
     0     0   60.61334    0   35   61.22854   60.61334  1.00%     -    2s
     0     0   60.61334    0   49   61.22854   60.61334  1.00%     -    2s
     0     0   60.72022    0   46   61.22854   60.72022  0.83%     -    2s
     0     0   60.81373    0   37   61.22854   60.81373  0.68%     -    2s
     0     0   60.82257    0   37   61.22854   60.82257  0.66%     -    2s
     0     0   60.82511    0   36   61.22854   60.82511  0.66%     -    2s
     0     0   60.83452    0   39   61.22854   60.83452  0.64%     -    2s
     0     0   61.01220    0   46   61.22854   61.01220  0.35%     -    2s
     0     0   61.01220    0    5   61.22854   61.01220  0.35%     -    2s
     0     0   61.04352    0   13   61.22854   61.04352  0.30%     -    2s
     0     0     cutoff    0        61.22854   61.22854  0.00%     -    2s

Cutting planes:
  Gomory: 1
  MIR: 3
  GUB cover: 2
  RLT: 1

Explored 1 nodes (1903 simplex iterations) in 2.50 seconds (0.41 work units)
Thread count was 32 (of 80 available processors)

Solution count 2: 61.2285 61.4067 

Optimal solution found (tolerance 1.00e-04)
Best objective 6.122854315746e+01, best bound 6.122854315746e+01, gap 0.0000%

User-callback calls 583, time in user-callback 1.44 sec
cuts :  0
